
Gurobi 6.5.2 (linux64) logging started Tue Sep  6 10:06:18 2016

Optimize a model with 41 rows, 115 columns and 235 nonzeros
Coefficient statistics:
  Matrix range    [1e+00, 2e+00]
  Objective range [4e+00, 1e+02]
  Bounds range    [1e+00, 1e+00]
  RHS range       [1e+00, 1e+00]
Presolve removed 20 rows and 17 columns
Presolve time: 0.00s
Presolved: 21 rows, 98 columns, 195 nonzeros
Variable types: 0 continuous, 98 integer (98 binary)
Found heuristic solution: objective 600.0000000

Root relaxation: objective 5.600000e+02, 24 iterations, 0.00 seconds

    Nodes    |    Current Node    |     Objective Bounds      |     Work
 Expl Unexpl |  Obj  Depth IntInf | Incumbent    BestBd   Gap | It/Node Time

     0     0  560.00000    0    4  600.00000  560.00000  6.67%     -    0s
     0     0  560.60000    0   10  600.00000  560.60000  6.57%     -    0s
     0     0  560.60000    0    4  600.00000  560.60000  6.57%     -    0s
     0     0  560.75000    0   10  600.00000  560.75000  6.54%     -    0s
     0     0  560.75000    0   10  600.00000  560.75000  6.54%     -    0s
     0     0  560.75000    0   10  600.00000  560.75000  6.54%     -    0s
     0     2  560.75000    0   10  600.00000  560.75000  6.54%     -    0s
*   41    14              14     594.0000000  563.00000  5.22%   2.0    0s
*   57    23              10     593.0000000  563.00000  5.06%   2.1    0s
*   75     3              18     588.0000000  563.00000  4.25%   1.8    0s
*  117    19              11     585.0000000  563.00000  3.76%   2.3    0s
*  122    17               6     575.0000000  563.00000  2.09%   2.4    0s

Cutting planes:
  Gomory: 2
  MIR: 1
  Mod-K: 1
  Lazy constraints: 38

Explored 192 nodes (470 simplex iterations) in 0.02 seconds
Thread count was 8 (of 8 available processors)

Optimal solution found (tolerance 1.00e-04)
Best objective 5.750000000000e+02, best bound 5.750000000000e+02, gap 0.0%
